(set-logic QF_S)
(declare-fun T_13 () Bool)
(declare-fun T_SELECT_2 () Bool)
(declare-fun I0_26 () Int)
(declare-fun PCTEMP_LHS_2 () Int)
(declare-fun T0_26 () String)
(declare-fun T1_26 () String)
(declare-fun T2_26 () String)
(declare-fun T3_26 () String)
(declare-fun T4_26 () String)
(declare-fun T5_26 () String)
(declare-fun T_11 () String)
(assert (= T_11 (str.++ T0_26 T1_26)))
(assert (= T1_26 (str.++ T2_26 T3_26)))
(assert (= T2_26 (str.++ T4_26 T5_26)))
(assert (not (str.in.re T4_26 (str.to.re "utm_source="))))
(assert (= T5_26 "utm_source="))
(assert T_13)
(assert (= T_13 (< (- 1) PCTEMP_LHS_2)))
(assert (= PCTEMP_LHS_2 (+ I0_26 0)))
(assert (= T_SELECT_2 (not (= PCTEMP_LHS_2 (- 1)))))
(assert (= 0 (str.len T0_26))) ; len 0
(assert (= I0_26 (str.len T4_26))) ; len 1
(assert T_SELECT_2)
(check-sat)
